Automatic mesh
0
G (M)
N N N #supercell must have the same sampling as the bulk calculation
0.  0.  0.
