Automatic mesh
0
G (M)
N N N #same as bulk calculation, no supercell here
0.  0.  0.
