Automatic mesh
0
G (M)
4 4 4 (Aim for the same sampling as in the bulk calculation)
0.  0.  0.
