Automatic mesh
0
G (M)
N N N (Aim for the same sampling as in the bulk calculation)
0.  0.  0.
